!HF DEF2-SVP
* int 0 2
O  0 0 0 0.0    0.0 0.0
H  1 0 0 0.9903 0.0 0.0
*
